NAME : rnd47_50.tsp.tsp.opt.tour
TYPE : TOUR
DIMENSION : 50
TOUR_SECTION
1
9
19
28
16
37
18
10
50
23
24
5
48
7
4
13
41
30
34
36
39
43
21
49
29
40
26
12
3
8
47
14
22
17
15
45
42
32
11
25
20
31
35
33
38
2
46
6
44
27
-1